0 0 10 
1 0 105 
2 0 106 
3 0 113 
4 0 120 
5 0 121 
6 0 127 
7 0 128 
8 0 135 
9 0 141 
10 0 148 
11 0 15 
12 0 155 
13 0 162 
14 0 169 
15 0 17 
16 0 176 
17 0 179 
18 0 180 
19 0 181 
20 0 190 
21 0 197 
22 0 204 
23 0 211 
24 0 212 
25 0 218 
26 0 219 
27 0 22 
28 0 225 
29 0 226 
30 0 233 
31 0 25 
32 0 29 
33 0 30 
34 0 32 
35 0 33 
36 0 36 
37 0 41 
38 0 43 
39 0 44 
40 0 45 
41 0 46 
42 0 47 
43 0 48 
44 0 49 
45 0 50 
46 0 57 
47 0 64 
48 0 71 
49 0 73 
50 0 78 
51 0 8 
52 0 81 
53 0 89 
54 0 9 
55 0 92 
56 0 97 
57 0 99 
58 2 10 
59 2 100 
60 2 102 
61 2 103 
62 2 105 
63 2 106 
64 2 107 
65 2 108 
66 2 110 
67 2 112 
68 2 114 
69 2 115 
70 2 116 
71 2 117 
72 2 119 
73 2 120 
74 2 121 
75 2 122 
76 2 128 
77 2 130 
78 2 134 
79 2 136 
80 2 137 
81 2 138 
82 2 141 
83 2 147 
84 2 148 
85 2 149 
86 2 150 
87 2 153 
88 2 159 
89 2 160 
90 2 161 
91 2 162 
92 2 164 
93 2 166 
94 2 167 
95 2 169 
96 2 170 
97 2 172 
98 2 173 
99 2 177 
100 2 179 
101 2 184 
102 2 186 
103 2 187 
104 2 189 
105 2 191 
106 2 192 
107 2 194 
108 2 196 
109 2 205 
110 2 209 
111 2 211 
112 2 215 
113 2 217 
114 2 218 
115 2 220 
116 2 222 
117 2 223 
118 2 226 
119 2 23 
120 2 233 
121 2 24 
122 2 25 
123 2 28 
124 2 31 
125 2 33 
126 2 34 
127 2 36 
128 2 37 
129 2 38 
130 2 39 
131 2 41 
132 2 43 
133 2 45 
134 2 47 
135 2 48 
136 2 50 
137 2 51 
138 2 53 
139 2 54 
140 2 56 
141 2 58 
142 2 64 
143 2 66 
144 2 68 
145 2 70 
146 2 71 
147 2 73 
148 2 75 
149 2 76 
150 2 77 
151 2 79 
152 2 81 
153 2 82 
154 2 90 
155 2 91 
156 2 92 
157 2 94 
158 2 98 
159 5 105 
160 5 109 
161 5 11 
162 5 111 
163 5 113 
164 5 135 
165 5 14 
166 5 166 
167 5 17 
168 5 172 
169 5 176 
170 5 179 
171 5 183 
172 5 186 
173 5 188 
174 5 191 
175 5 194 
176 5 197 
177 5 200 
178 5 204 
179 5 208 
180 5 21 
181 5 210 
182 5 214 
183 5 217 
184 5 219 
185 5 222 
186 5 224 
187 5 33 
188 5 35 
189 5 42 
190 5 44 
191 5 50 
192 5 53 
193 5 55 
194 5 58 
195 5 60 
196 5 62 
197 5 65 
198 5 75 
199 5 8 
200 5 81 
201 5 85 
202 5 87 
203 5 97 
204 5 99 
205 8 100 
206 8 106 
207 8 167 
208 8 45 
209 8 66 
210 9 100 
211 9 103 
212 9 106 
213 9 140 
214 9 152 
215 9 164 
216 9 167 
217 9 170 
218 9 173 
219 9 177 
220 9 184 
221 9 189 
222 9 192 
223 9 205 
224 9 211 
225 9 215 
226 9 220 
227 9 31 
228 9 45 
229 9 48 
230 9 51 
231 9 56 
232 9 66 
233 9 73 
234 9 79 
235 9 82 
236 9 94 
237 10 10 
238 10 101 
239 10 103 
240 10 106 
241 10 110 
242 10 112 
243 10 134 
244 10 164 
245 10 168 
246 10 170 
247 10 173 
248 10 177 
249 10 184 
250 10 187 
251 10 189 
252 10 192 
253 10 196 
254 10 205 
255 10 209 
256 10 211 
257 10 215 
258 10 218 
259 10 220 
260 10 223 
261 10 31 
262 10 34 
263 10 41 
264 10 43 
265 10 46 
266 10 48 
267 10 51 
268 10 54 
269 10 56 
270 10 64 
271 10 67 
272 10 73 
273 10 79 
274 10 82 
275 10 94 
276 10 98 
277 11 10 
278 11 100 
279 11 103 
280 11 106 
281 11 110 
282 11 112 
283 11 12 
284 11 124 
285 11 134 
286 11 15 
287 11 164 
288 11 167 
289 11 170 
290 11 173 
291 11 177 
292 11 184 
293 11 187 
294 11 189 
295 11 192 
296 11 196 
297 11 198 
298 11 205 
299 11 209 
300 11 211 
301 11 215 
302 11 218 
303 11 220 
304 11 223 
305 11 31 
306 11 34 
307 11 41 
308 11 43 
309 11 45 
310 11 48 
311 11 51 
312 11 54 
313 11 56 
314 11 59 
315 11 64 
316 11 66 
317 11 73 
318 11 79 
319 11 82 
320 11 86 
321 11 94 
322 11 98 
323 12 173 
324 12 180 
325 12 201 
326 12 205 
327 12 211 
328 12 5 
329 12 82 
330 12 94 
331 15 102 
332 15 109 
333 15 11 
334 15 111 
335 15 113 
336 15 135 
337 15 169 
338 15 176 
339 15 183 
340 15 188 
341 15 197 
342 15 204 
343 15 208 
344 15 210 
345 15 214 
346 15 219 
347 15 224 
348 15 35 
349 15 42 
350 15 44 
351 15 47 
352 15 55 
353 15 60 
354 15 62 
355 15 65 
356 15 68 
357 15 8 
358 15 85 
359 15 87 
360 15 97 
361 15 99 
362 16 0 
363 16 241 
364 17 0 
365 17 115 
366 17 116 
367 17 117 
368 17 120 
369 17 121 
370 17 122 
371 17 137 
372 17 138 
373 17 141 
374 17 150 
375 17 153 
376 17 162 
377 17 226 
378 17 24 
379 17 241 
380 17 25 
381 17 28 
382 17 37 
383 17 38 
384 17 39 
385 17 70 
386 17 77 
387 17 91 
388 17 92 
389 18 0 
390 18 147 
391 18 149 
392 18 159 
393 18 161 
394 18 174 
395 18 175 
396 18 206 
397 18 207 
398 18 212 
399 18 213 
400 18 233 
401 18 241 
402 18 83 
403 18 84 
404 18 95 
405 18 96 
406 19 0 
407 25 10 
408 25 100 
409 25 101 
410 25 102 
411 25 103 
412 25 105 
413 25 107 
414 25 108 
415 25 110 
416 25 112 
417 25 113 
418 25 115 
419 25 12 
420 25 121 
421 25 123 
422 25 125 
423 25 131 
424 25 132 
425 25 133 
426 25 134 
427 25 157 
428 25 158 
429 25 164 
430 25 165 
431 25 171 
432 25 172 
433 25 176 
434 25 182 
435 25 183 
436 25 184 
437 25 185 
438 25 188 
439 25 194 
440 25 195 
441 25 196 
442 25 197 
443 25 199 
444 25 20 
445 25 202 
446 25 208 
447 25 209 
448 25 21 
449 25 210 
450 25 211 
451 25 213 
452 25 214 
453 25 215 
454 25 217 
455 25 22 
456 25 221 
457 25 222 
458 25 224 
459 25 24 
460 25 26 
461 25 28 
462 25 30 
463 25 31 
464 25 33 
465 25 35 
466 25 41 
467 25 43 
468 25 46 
469 25 52 
470 25 53 
471 25 56 
472 25 57 
473 25 58 
474 25 60 
475 25 61 
476 25 76 
477 25 78 
478 25 82 
479 25 84 
480 25 85 
481 25 87 
482 25 89 
483 25 94 
484 25 98 
485 28 100 
486 28 109 
487 28 115 
488 28 119 
489 28 12 
490 28 16 
491 28 18 
492 28 200 
493 28 220 
494 28 227 
495 28 230 
496 28 234 
497 28 25 
498 28 27 
499 28 30 
500 28 32 
501 28 38 
502 28 49 
503 28 6 
504 28 67 
505 28 8 
506 28 84 
507 28 92 
508 28 95 
509 31 105 
510 31 110 
511 31 121 
512 31 33 
513 31 41 
514 31 45 
515 31 63 
516 31 69 
517 31 85 
518 31 88 
519 32 10 
520 32 105 
521 32 110 
522 32 113 
523 32 121 
524 32 124 
525 32 175 
526 32 187 
527 32 201 
528 32 217 
529 32 224 
530 32 28 
531 32 33 
532 32 41 
533 32 45 
534 32 63 
535 32 69 
536 32 82 
537 32 85 
538 32 88 
539 32 98 
540 33 10 
541 33 106 
542 33 108 
543 33 111 
544 33 113 
545 33 122 
546 33 199 
547 33 217 
548 33 224 
549 33 24 
550 33 26 
551 33 28 
552 33 31 
553 33 34 
554 33 42 
555 33 45 
556 33 63 
557 33 69 
558 33 82 
559 33 86 
560 33 88 
561 33 94 
562 33 98 
563 34 10 
564 34 105 
565 34 108 
566 34 110 
567 34 113 
568 34 121 
569 34 136 
570 34 17 
571 34 199 
572 34 217 
573 34 224 
574 34 228 
575 34 24 
576 34 26 
577 34 28 
578 34 31 
579 34 33 
580 34 36 
581 34 41 
582 34 45 
583 34 5 
584 34 63 
585 34 70 
586 34 72 
587 34 82 
588 34 85 
589 34 88 
590 34 94 
591 34 98 
592 35 116 
593 35 13 
594 35 217 
595 35 224 
596 35 45 
597 35 63 
598 35 88 
599 38 107 
600 38 109 
601 38 112 
602 38 119 
603 38 123 
604 38 16 
605 38 18 
606 38 200 
607 38 220 
608 38 227 
609 38 25 
610 38 27 
611 38 32 
612 38 35 
613 38 43 
614 38 6 
615 38 8 
616 38 87 
617 38 95 
618 40 102 
619 40 103 
620 40 125 
621 40 134 
622 40 157 
623 40 165 
624 40 171 
625 40 176 
626 40 185 
627 40 188 
628 40 197 
629 40 202 
630 40 21 
631 40 211 
632 40 214 
633 40 215 
634 40 22 
635 40 222 
636 40 53 
637 40 57 
638 40 58 
639 40 61 
640 41 131 
641 41 133 
642 41 156 
643 41 164 
644 41 172 
645 41 182 
646 41 184 
647 41 194 
648 41 196 
649 41 208 
650 41 210 
651 41 218 
652 41 219 
653 41 225 
654 41 226 
655 41 47 
656 41 48 
657 41 64 
658 41 65 
659 41 67 
660 41 68 
661 41 69 
662 41 90 
663 41 91 
664 46 241 
665 48 118 
666 48 121 
667 48 124 
668 48 150 
669 48 156 
670 48 157 
671 48 158 
672 48 159 
673 48 16 
674 48 173 
675 48 177 
676 48 180 
677 48 182 
678 48 184 
679 48 185 
680 48 187 
681 48 194 
682 48 195 
683 48 196 
684 48 198 
685 48 199 
686 48 200 
687 48 202 
688 48 207 
689 48 210 
690 48 213 
691 48 214 
692 48 215 
693 48 217 
694 48 219 
695 48 224 
696 48 226 
697 48 33 
698 48 34 
699 48 35 
700 48 37 
701 48 38 
702 48 39 
703 48 40 
704 48 42 
705 48 44 
706 48 45 
707 48 46 
708 48 47 
709 48 49 
710 48 52 
711 48 53 
712 48 54 
713 48 61 
714 48 63 
715 48 9 
716 49 174 
717 51 122 
718 51 124 
719 51 129 
720 51 133 
721 51 137 
722 51 141 
723 51 145 
724 51 147 
725 51 177 
726 51 180 
727 51 184 
728 51 186 
729 51 188 
730 51 190 
731 51 192 
732 51 203 
733 51 206 
734 51 208 
735 51 21 
736 51 219 
737 51 229 
738 51 232 
739 51 234 
740 51 43 
741 51 59 
742 51 6 
743 51 67 
744 51 70 
745 51 74 
746 51 78 
747 51 84 
748 55 149 
749 55 182 
750 55 217 
751 55 71 
752 55 74 
753 55 78 
754 56 121 
755 56 123 
756 56 176 
757 56 179 
758 56 182 
759 56 185 
760 56 187 
761 56 202 
762 56 207 
763 56 217 
764 56 42 
765 56 72 
766 56 76 
767 57 116 
768 57 121 
769 57 123 
770 57 132 
771 57 136 
772 57 144 
773 57 161 
774 57 176 
775 57 179 
776 57 182 
777 57 185 
778 57 187 
779 57 189 
780 57 19 
781 57 202 
782 57 204 
783 57 207 
784 57 217 
785 57 22 
786 57 220 
787 57 228 
788 57 231 
789 57 42 
790 57 5 
791 57 65 
792 57 69 
793 57 82 
794 58 126 
795 58 138 
796 58 56 
797 61 122 
798 61 124 
799 61 129 
800 61 133 
801 61 137 
802 61 141 
803 61 145 
804 61 147 
805 61 177 
806 61 180 
807 61 186 
808 61 188 
809 61 190 
810 61 192 
811 61 203 
812 61 208 
813 61 229 
814 61 232 
815 61 234 
816 61 43 
817 61 59 
818 61 6 
819 61 70 
820 61 73 
821 61 77 
822 62 0 
823 63 118 
824 63 150 
825 63 159 
826 63 195 
827 63 196 
828 63 199 
829 63 200 
830 63 210 
831 63 214 
832 63 215 
833 63 34 
834 63 35 
835 63 38 
836 63 39 
837 63 40 
838 63 45 
839 63 46 
840 63 47 
841 63 49 
842 63 53 
843 63 54 
844 63 61 
845 63 63 
846 63 9 
847 64 156 
848 64 158 
849 64 16 
850 64 174 
851 71 102 
852 71 103 
853 71 107 
854 71 108 
855 71 113 
856 71 122 
857 71 123 
858 71 127 
859 71 128 
860 71 132 
861 71 133 
862 71 138 
863 71 150 
864 71 157 
865 71 160 
866 71 162 
867 71 163 
868 71 164 
869 71 166 
870 71 168 
871 71 169 
872 71 171 
873 71 185 
874 71 186 
875 71 190 
876 71 191 
877 71 194 
878 71 195 
879 71 196 
880 71 201 
881 71 203 
882 71 206 
883 71 211 
884 71 212 
885 71 213 
886 71 223 
887 71 225 
888 71 56 
889 71 57 
890 71 58 
891 71 59 
892 71 63 
893 71 69 
894 71 81 
895 71 82 
896 71 85 
897 71 91 
898 71 93 
899 71 94 
900 71 97 
901 71 98 
902 72 100 
903 72 125 
904 72 188 
905 72 64 
906 74 11 
907 74 147 
908 74 15 
909 74 161 
910 74 165 
911 74 170 
912 74 172 
913 74 176 
914 74 180 
915 74 182 
916 74 19 
917 74 210 
918 74 218 
919 74 228 
920 74 231 
921 74 233 
922 74 26 
923 74 34 
924 74 7 
925 77 162 
926 77 166 
927 78 12 
928 78 15 
929 78 162 
930 78 166 
931 78 19 
932 78 74 
933 79 115 
934 79 13 
935 79 140 
936 79 160 
937 79 162 
938 79 167 
939 79 169 
940 79 17 
941 79 171 
942 80 0 
943 80 146 
944 80 160 
945 80 162 
946 80 166 
947 80 169 
948 80 171 
949 80 179 
950 80 208 
951 80 219 
952 80 227 
953 80 230 
954 80 35 
955 80 5 
956 80 74 
957 81 173 
958 81 215 
959 81 22 
960 81 8 
961 84 11 
962 84 14 
963 84 147 
964 84 161 
965 84 165 
966 84 168 
967 84 170 
968 84 172 
969 84 176 
970 84 18 
971 84 180 
972 84 182 
973 84 218 
974 84 228 
975 84 231 
976 84 233 
977 86 103 
978 86 113 
979 86 122 
980 86 128 
981 86 138 
982 86 150 
983 86 185 
984 86 191 
985 86 194 
986 86 201 
987 86 203 
988 86 206 
989 86 212 
990 86 213 
991 86 56 
992 86 58 
993 86 65 
994 86 69 
995 86 82 
996 86 88 
997 86 92 
998 86 97 
999 87 101 
1000 87 107 
1001 87 126 
1002 87 132 
1003 87 157 
1004 87 189 
1005 87 195 
1006 87 55 
1007 87 57 
1008 87 66 
1009 87 70 
1010 87 80 
1011 87 89 
1012 87 93 
1013 94 100 
1014 94 104 
1015 94 105 
1016 94 108 
1017 94 109 
1018 94 110 
1019 94 115 
1020 94 117 
1021 94 120 
1022 94 121 
1023 94 125 
1024 94 126 
1025 94 129 
1026 94 130 
1027 94 131 
1028 94 136 
1029 94 138 
1030 94 154 
1031 94 158 
1032 94 160 
1033 94 161 
1034 94 162 
1035 94 164 
1036 94 167 
1037 94 172 
1038 94 173 
1039 94 177 
1040 94 178 
1041 94 181 
1042 94 182 
1043 94 183 
1044 94 188 
1045 94 190 
1046 94 193 
1047 94 194 
1048 94 198 
1049 94 199 
1050 94 202 
1051 94 203 
1052 94 204 
1053 94 209 
1054 94 211 
1055 94 221 
1056 94 223 
1057 94 234 
1058 94 51 
1059 94 6 
1060 94 87 
1061 94 88 
1062 94 89 
1063 94 99 
1064 95 102 
1065 95 123 
1066 95 175 
1067 95 196 
1068 97 10 
1069 97 13 
1070 97 159 
1071 97 165 
1072 97 17 
1073 97 170 
1074 97 216 
1075 97 226 
1076 97 229 
1077 97 231 
1078 97 55 
1079 97 57 
1080 97 60 
1081 97 62 
1082 97 65 
1083 97 68 
1084 97 70 
1085 97 73 
1086 97 75 
1087 97 80 
1088 97 84 
1089 97 92 
1090 97 94 
1091 97 96 
1092 99 0 
1093 100 166 
1094 101 166 
1095 101 77 
1096 101 80 
1097 101 84 
1098 102 158 
1099 102 164 
1100 102 166 
1101 102 78 
1102 102 82 
1103 103 11 
1104 103 144 
1105 103 158 
1106 103 164 
1107 103 166 
1108 103 217 
1109 103 225 
1110 103 228 
1111 103 49 
1112 103 54 
1113 103 59 
1114 103 64 
1115 103 66 
1116 103 69 
1117 103 72 
1118 103 8 
1119 103 91 
1120 103 93 
1121 104 166 
1122 104 213 
1123 107 159 
1124 107 165 
1125 107 216 
1126 107 226 
1127 107 229 
1128 107 231 
1129 107 55 
1130 107 57 
1131 107 60 
1132 107 62 
1133 107 65 
1134 107 70 
1135 107 73 
1136 107 75 
1137 107 79 
1138 107 83 
1139 107 92 
1140 107 94 
1141 107 96 
1142 109 105 
1143 109 108 
1144 109 115 
1145 109 117 
1146 109 120 
1147 109 126 
1148 109 129 
1149 109 136 
1150 109 138 
1151 109 161 
1152 109 162 
1153 109 172 
1154 109 178 
1155 109 181 
1156 109 188 
1157 109 190 
1158 109 193 
1159 109 199 
1160 109 202 
1161 109 209 
1162 109 211 
1163 109 234 
1164 109 51 
1165 109 6 
1166 109 87 
1167 109 88 
1168 109 89 
1169 109 99 
1170 110 103 
1171 110 109 
1172 110 124 
1173 110 130 
1174 110 154 
1175 110 168 
1176 110 169 
1177 110 176 
1178 110 182 
1179 110 197 
1180 110 203 
1181 117 107 
1182 117 108 
1183 117 110 
1184 117 122 
1185 117 123 
1186 117 124 
1187 117 125 
1188 117 151 
1189 117 152 
1190 117 156 
1191 117 157 
1192 117 160 
1193 117 161 
1194 117 162 
1195 117 167 
1196 117 18 
1197 117 181 
1198 117 185 
1199 117 189 
1200 117 19 
1201 117 191 
1202 117 192 
1203 117 193 
1204 117 195 
1205 117 197 
1206 117 209 
1207 117 21 
1208 117 23 
1209 117 233 
1210 117 24 
1211 117 26 
1212 117 27 
1213 117 28 
1214 117 30 
1215 117 31 
1216 117 33 
1217 117 34 
1218 117 35 
1219 117 37 
1220 117 39 
1221 117 45 
1222 117 47 
1223 117 6 
1224 117 62 
1225 117 63 
1226 117 96 
1227 117 97 
1228 118 111 
1229 118 154 
1230 120 10 
1231 120 13 
1232 120 149 
1233 120 17 
1234 120 174 
1235 120 176 
1236 120 188 
1237 120 190 
1238 120 201 
1239 120 207 
1240 120 23 
1241 120 41 
1242 120 43 
1243 120 49 
1244 120 55 
1245 120 61 
1246 120 67 
1247 120 69 
1248 120 71 
1249 120 74 
1250 123 184 
1251 123 195 
1252 123 241 
1253 123 37 
1254 123 45 
1255 124 141 
1256 124 184 
1257 124 195 
1258 124 21 
1259 124 24 
1260 124 37 
1261 124 45 
1262 125 184 
1263 125 189 
1264 125 196 
1265 125 208 
1266 125 21 
1267 125 38 
1268 125 46 
1269 126 0 
1270 126 11 
1271 126 141 
1272 126 148 
1273 126 169 
1274 126 173 
1275 126 180 
1276 126 184 
1277 126 189 
1278 126 195 
1279 126 208 
1280 126 21 
1281 126 223 
1282 126 26 
1283 126 37 
1284 126 40 
1285 126 45 
1286 126 48 
1287 126 65 
1288 126 68 
1289 126 73 
1290 126 75 
1291 126 8 
1292 127 184 
1293 127 198 
1294 127 52 
1295 130 149 
1296 130 174 
1297 130 176 
1298 130 190 
1299 130 197 
1300 130 201 
1301 130 207 
1302 130 39 
1303 130 41 
1304 130 43 
1305 130 47 
1306 130 49 
1307 130 55 
1308 130 61 
1309 130 69 
1310 130 71 
1311 130 74 
1312 132 122 
1313 132 124 
1314 132 151 
1315 132 157 
1316 132 160 
1317 132 167 
1318 132 19 
1319 132 192 
1320 132 193 
1321 132 31 
1322 132 34 
1323 132 35 
1324 132 6 
1325 132 63 
1326 132 96 
1327 133 106 
1328 133 112 
1329 133 125 
1330 133 155 
1331 133 161 
1332 133 181 
1333 133 186 
1334 133 187 
1335 133 233 
1336 133 95 
1337 140 10 
1338 140 102 
1339 140 103 
1340 140 107 
1341 140 108 
1342 140 113 
1343 140 12 
1344 140 13 
1345 140 14 
1346 140 15 
1347 140 17 
1348 140 179 
1349 140 180 
1350 140 181 
1351 140 184 
1352 140 185 
1353 140 189 
1354 140 19 
1355 140 190 
1356 140 193 
1357 140 194 
1358 140 195 
1359 140 200 
1360 140 202 
1361 140 205 
1362 140 206 
1363 140 210 
1364 140 211 
1365 140 214 
1366 140 215 
1367 140 216 
1368 140 221 
1369 140 223 
1370 140 225 
1371 140 27 
1372 140 28 
1373 140 38 
1374 140 40 
1375 140 45 
1376 140 46 
1377 140 47 
1378 140 6 
1379 140 61 
1380 140 62 
1381 140 66 
1382 140 67 
1383 140 70 
1384 140 71 
1385 140 72 
1386 140 77 
1387 140 79 
1388 140 97 
1389 140 98 
1390 141 100 
1391 141 187 
1392 141 208 
1393 141 64 
1394 143 12 
1395 143 124 
1396 143 129 
1397 143 135 
1398 143 140 
1399 143 146 
1400 143 150 
1401 143 166 
1402 143 172 
1403 143 174 
1404 143 176 
1405 143 19 
1406 143 21 
1407 143 226 
1408 143 229 
1409 143 23 
1410 143 232 
1411 143 236 
1412 143 33 
1413 143 43 
1414 143 52 
1415 143 57 
1416 143 82 
1417 143 84 
1418 143 89 
1419 143 95 
1420 144 0 
1421 146 121 
1422 146 132 
1423 146 49 
1424 147 10 
1425 147 143 
1426 147 146 
1427 147 150 
1428 147 17 
1429 148 10 
1430 148 115 
1431 148 144 
1432 148 148 
1433 148 17 
1434 148 225 
1435 149 10 
1436 149 152 
1437 149 17 
1438 149 173 
1439 149 20 
1440 149 225 
1441 149 227 
1442 149 230 
1443 149 34 
1444 149 42 
1445 149 81 
1446 150 163 
1447 150 30 
1448 150 86 
1449 153 124 
1450 153 129 
1451 153 135 
1452 153 140 
1453 153 145 
1454 153 149 
1455 153 166 
1456 153 172 
1457 153 174 
1458 153 176 
1459 153 21 
1460 153 226 
1461 153 23 
1462 153 33 
1463 153 43 
1464 153 52 
1465 153 57 
1466 153 82 
1467 153 84 
1468 153 89 
1469 153 95 
1470 155 103 
1471 155 113 
1472 155 14 
1473 155 15 
1474 155 179 
1475 155 180 
1476 155 181 
1477 155 184 
1478 155 190 
1479 155 193 
1480 155 200 
1481 155 202 
1482 155 205 
1483 155 211 
1484 155 214 
1485 155 221 
1486 155 223 
1487 155 27 
1488 155 46 
1489 155 47 
1490 155 6 
1491 155 61 
1492 155 67 
1493 155 70 
1494 155 77 
1495 155 79 
1496 155 97 
1497 156 101 
1498 156 107 
1499 156 188 
1500 156 194 
1501 156 209 
1502 156 215 
1503 156 65 
1504 156 71 
1505 162 0 
1506 163 10 
1507 163 105 
1508 163 114 
1509 163 120 
1510 163 128 
1511 163 132 
1512 163 134 
1513 163 136 
1514 163 139 
1515 163 141 
1516 163 144 
1517 163 150 
1518 163 156 
1519 163 157 
1520 163 158 
1521 163 159 
1522 163 197 
1523 163 212 
1524 163 222 
1525 163 227 
1526 163 228 
1527 163 23 
1528 163 25 
1529 163 27 
1530 163 29 
1531 163 31 
1532 163 33 
1533 163 35 
1534 163 37 
1535 163 39 
1536 163 41 
1537 163 43 
1538 163 45 
1539 163 47 
1540 163 49 
1541 163 6 
1542 163 60 
1543 163 61 
1544 163 65 
1545 163 66 
1546 163 70 
1547 163 71 
1548 163 76 
1549 163 85 
1550 164 63 
1551 166 100 
1552 166 11 
1553 166 111 
1554 166 114 
1555 166 116 
1556 166 13 
1557 166 133 
1558 166 135 
1559 166 137 
1560 166 140 
1561 166 144 
1562 166 148 
1563 166 16 
1564 166 162 
1565 166 164 
1566 166 169 
1567 166 174 
1568 166 178 
1569 166 18 
1570 166 180 
1571 166 184 
1572 166 190 
1573 166 194 
1574 166 201 
1575 166 204 
1576 166 208 
1577 166 223 
1578 166 232 
1579 166 236 
1580 166 24 
1581 166 28 
1582 166 32 
1583 166 36 
1584 166 40 
1585 166 44 
1586 166 48 
1587 166 53 
1588 166 57 
1589 166 85 
1590 166 88 
1591 166 90 
1592 166 94 
1593 166 98 
1594 168 241 
1595 169 117 
1596 169 125 
1597 169 166 
1598 170 138 
1599 170 149 
1600 170 187 
1601 170 190 
1602 170 194 
1603 170 22 
1604 171 10 
1605 171 113 
1606 171 132 
1607 171 134 
1608 171 136 
1609 171 138 
1610 171 188 
1611 171 192 
1612 171 211 
1613 171 22 
1614 171 222 
1615 171 78 
1616 171 84 
1617 172 10 
1618 172 104 
1619 172 113 
1620 172 12 
1621 172 132 
1622 172 134 
1623 172 136 
1624 172 138 
1625 172 15 
1626 172 161 
1627 172 177 
1628 172 182 
1629 172 199 
1630 172 202 
1631 172 211 
1632 172 22 
1633 172 222 
1634 172 230 
1635 172 51 
1636 172 56 
1637 172 84 
1638 172 87 
1639 172 92 
1640 172 97 
1641 173 108 
1642 173 145 
1643 173 233 
1644 176 0 
1645 176 100 
1646 176 11 
1647 176 111 
1648 176 114 
1649 176 116 
1650 176 13 
1651 176 133 
1652 176 135 
1653 176 137 
1654 176 148 
1655 176 16 
1656 176 162 
1657 176 164 
1658 176 169 
1659 176 174 
1660 176 178 
1661 176 18 
1662 176 180 
1663 176 189 
1664 176 193 
1665 176 223 
1666 176 236 
1667 176 241 
1668 176 57 
1669 176 85 
1670 176 88 
1671 176 90 
1672 176 98 
1673 178 150 
1674 178 159 
1675 178 197 
1676 178 227 
1677 178 6 
1678 178 60 
1679 178 66 
1680 178 76 
1681 179 105 
1682 179 156 
1683 179 158 
1684 179 64 
1685 179 70 
1686 186 109 
1687 186 11 
1688 186 111 
1689 186 114 
1690 186 13 
1691 186 130 
1692 186 133 
1693 186 134 
1694 186 137 
1695 186 138 
1696 186 142 
1697 186 143 
1698 186 146 
1699 186 147 
1700 186 148 
1701 186 153 
1702 186 155 
1703 186 16 
1704 186 178 
1705 186 179 
1706 186 18 
1707 186 189 
1708 186 190 
1709 186 192 
1710 186 20 
1711 186 204 
1712 186 205 
1713 186 206 
1714 186 207 
1715 186 22 
1716 186 24 
1717 186 26 
1718 186 28 
1719 186 30 
1720 186 32 
1721 186 33 
1722 186 56 
1723 186 57 
1724 186 6 
1725 186 67 
1726 186 68 
1727 186 70 
1728 186 82 
1729 186 83 
1730 186 84 
1731 186 85 
1732 187 140 
1733 187 193 
1734 187 71 
1735 189 11 
1736 189 110 
1737 189 114 
1738 189 120 
1739 189 128 
1740 189 13 
1741 189 130 
1742 189 132 
1743 189 17 
1744 189 21 
1745 189 231 
1746 189 233 
1747 189 25 
1748 189 29 
1749 193 101 
1750 193 108 
1751 193 15 
1752 193 223 
1753 194 10 
1754 194 108 
1755 194 113 
1756 194 129 
1757 194 15 
1758 195 10 
1759 195 101 
1760 195 108 
1761 195 113 
1762 195 129 
1763 195 15 
1764 195 157 
1765 195 223 
1766 195 230 
1767 195 35 
1768 196 116 
1769 199 11 
1770 199 114 
1771 199 13 
1772 199 130 
1773 199 132 
1774 199 231 
1775 199 233 
1776 201 134 
1777 201 137 
1778 201 143 
1779 201 146 
1780 201 153 
1781 201 155 
1782 201 178 
1783 201 204 
1784 201 206 
1785 201 33 
1786 201 56 
1787 201 6 
1788 201 82 
1789 201 84 
1790 202 141 
1791 202 147 
1792 202 177 
1793 202 188 
1794 202 194 
1795 202 207 
1796 202 55 
1797 202 66 
1798 202 72 
1799 202 85 
1800 209 104 
1801 209 105 
1802 209 109 
1803 209 110 
1804 209 113 
1805 209 114 
1806 209 115 
1807 209 120 
1808 209 122 
1809 209 124 
1810 209 125 
1811 209 127 
1812 209 128 
1813 209 130 
1814 209 131 
1815 209 134 
1816 209 135 
1817 209 14 
1818 209 144 
1819 209 146 
1820 209 148 
1821 209 150 
1822 209 152 
1823 209 154 
1824 209 155 
1825 209 156 
1826 209 158 
1827 209 16 
1828 209 160 
1829 209 162 
1830 209 164 
1831 209 165 
1832 209 166 
1833 209 167 
1834 209 169 
1835 209 170 
1836 209 173 
1837 209 175 
1838 209 177 
1839 209 179 
1840 209 18 
1841 209 181 
1842 209 183 
1843 209 184 
1844 209 188 
1845 209 189 
1846 209 192 
1847 209 193 
1848 209 194 
1849 209 199 
1850 209 20 
1851 209 201 
1852 209 204 
1853 209 205 
1854 209 209 
1855 209 210 
1856 209 213 
1857 209 214 
1858 209 215 
1859 209 22 
1860 209 220 
1861 209 222 
1862 209 224 
1863 209 226 
1864 209 228 
1865 209 229 
1866 209 230 
1867 209 24 
1868 209 26 
1869 209 28 
1870 209 30 
1871 209 32 
1872 209 34 
1873 209 35 
1874 209 38 
1875 209 39 
1876 209 41 
1877 209 43 
1878 209 44 
1879 209 47 
1880 209 48 
1881 209 51 
1882 209 52 
1883 209 56 
1884 209 57 
1885 209 60 
1886 209 61 
1887 209 62 
1888 209 67 
1889 209 76 
1890 209 77 
1891 209 81 
1892 209 82 
1893 209 85 
1894 209 86 
1895 209 87 
1896 209 92 
1897 210 107 
1898 210 186 
1899 210 207 
1900 210 54 
1901 210 79 
1902 212 10 
1903 212 101 
1904 212 140 
1905 212 145 
1906 212 148 
1907 212 15 
1908 212 150 
1909 212 153 
1910 212 159 
1911 212 161 
1912 212 163 
1913 212 174 
1914 212 178 
1915 212 181 
1916 212 19 
1917 212 23 
1918 212 235 
1919 212 27 
1920 212 31 
1921 212 34 
1922 212 36 
1923 212 44 
1924 212 48 
1925 212 74 
1926 212 8 
1927 212 99 
1928 215 224 
1929 215 41 
1930 216 13 
1931 216 137 
1932 216 146 
1933 216 172 
1934 216 179 
1935 216 224 
1936 216 32 
1937 216 41 
1938 216 44 
1939 216 48 
1940 217 13 
1941 217 137 
1942 217 144 
1943 217 146 
1944 217 149 
1945 217 152 
1946 217 158 
1947 217 160 
1948 217 162 
1949 217 172 
1950 217 177 
1951 217 179 
1952 217 225 
1953 217 30 
1954 217 32 
1955 217 35 
1956 217 42 
1957 217 46 
1958 218 13 
1959 218 137 
1960 218 144 
1961 218 146 
1962 218 149 
1963 218 152 
1964 218 158 
1965 218 160 
1966 218 162 
1967 218 172 
1968 218 177 
1969 218 179 
1970 218 224 
1971 218 30 
1972 218 32 
1973 218 35 
1974 218 41 
1975 218 69 
1976 218 73 
1977 218 9 
1978 218 94 
1979 218 98 
1980 219 137 
1981 219 232 
1982 219 5 
1983 222 10 
1984 222 101 
1985 222 140 
1986 222 145 
1987 222 150 
1988 222 153 
1989 222 159 
1990 222 161 
1991 222 163 
1992 222 178 
1993 222 226 
1994 222 235 
1995 222 31 
1996 222 36 
1997 222 43 
1998 222 47 
1999 222 74 
2000 222 8 
2001 222 99 
2002 223 241 
2003 224 104 
2004 224 110 
2005 224 113 
2006 224 120 
2007 224 122 
2008 224 125 
2009 224 128 
2010 224 131 
2011 224 135 
2012 224 155 
2013 224 156 
2014 224 165 
2015 224 166 
2016 224 167 
2017 224 170 
2018 224 183 
2019 224 189 
2020 224 192 
2021 224 199 
2022 224 201 
2023 224 204 
2024 224 210 
2025 224 213 
2026 224 220 
2027 224 222 
2028 224 228 
2029 224 229 
2030 224 230 
2031 224 38 
2032 224 39 
2033 224 51 
2034 224 57 
2035 224 60 
2036 224 67 
2037 224 76 
2038 224 82 
2039 224 85 
2040 224 92 
2041 225 108 
2042 225 114 
2043 225 138 
2044 225 140 
2045 225 141 
2046 225 142 
2047 225 187 
2048 225 193 
2049 225 208 
2050 225 214 
2051 225 55 
2052 225 61 
2053 225 80 
2054 225 86 
2055 241 0 
2056 246 10 
2057 246 105 
2058 246 17 
2059 246 193 
2060 246 200 
2061 246 208 
2062 246 216 
2063 246 224 
2064 246 232 
2065 246 25 
2066 246 30 
2067 246 31 
2068 246 32 
2069 246 33 
2070 246 41 
2071 246 43 
2072 246 44 
2073 246 45 
2074 246 46 
2075 246 47 
2076 246 48 
2077 246 49 
2078 246 57 
2079 246 65 
2080 246 73 
2081 246 81 
2082 246 89 
2083 246 9 
2084 246 97 
2085 246 98 
